<number of tasks>
29

<cycle time>
30

<task times>
1 7
2 19
3 15
4 5
5 12
6 10
7 8
8 16
9 2
10 6
11 21
12 10
13 9
14 4
15 14
16 7
17 14
18 17
19 10
20 16
21 1
22 9
23 25
24 14
25 14
26 2
27 10
28 7
29 20

<precedence relations>
1,3
1,25
2,6
2,26
3,4
4,5
5,8
5,13
6,8
7,9
7,12
7,25
8,11
8,16
9,10
10,14
10,15
11,17
12,15
13,17
14,16
15,19
16,18
17,20
18,22
19,21
20,23
21,22
22,23
23,24
23,28
24,29
25,29
26,27
27,29
28,29

<setup times forward>
1,3:2
1,6:1
1,7:2
1,9:2
1,15:1
1,19:1
1,21:2
1,25:2
1,27:1
2,3:2
2,4:2
2,6:1
2,7:2
2,9:2
2,13:1
2,15:1
2,19:1
2,21:2
2,25:2
3,2:2
3,6:1
3,10:2
3,12:2
3,14:2
3,15:1
3,19:3
3,25:4
3,26:2
3,27:1
4,2:2
4,5:2
4,6:1
4,10:2
4,12:2
4,14:2
4,15:1
4,19:3
4,25:4
4,26:2
4,27:1
5,6:1
5,7:2
5,8:1
5,9:2
5,13:1
5,15:1
5,19:1
5,21:2
5,25:2
5,27:1
6,1:1
6,3:1
6,4:1
6,5:1
6,7:1
6,9:1
6,10:1
6,12:1
6,13:2
6,14:1
6,19:2
6,21:1
6,25:3
6,26:1
7,1:2
7,2:2
7,5:2
7,6:1
7,8:1
7,11:3
7,12:2
7,13:3
7,17:3
7,25:4
7,26:2
7,27:1
8,7:1
8,9:1
8,10:1
8,11:2
8,12:1
8,13:2
8,14:1
8,16:1
8,19:2
8,21:1
8,25:3
8,26:1
9,1:2
9,2:2
9,5:2
9,6:1
9,8:1
9,10:2
9,11:3
9,12:2
9,13:3
9,17:3
9,25:4
9,26:2
9,27:1
10,3:2
10,4:2
10,6:1
10,8:1
10,11:1
10,13:1
10,15:1
10,17:1
10,20:2
10,25:2
10,27:1
11,7:3
11,9:3
11,10:1
11,12:1
11,14:1
11,15:2
11,16:1
11,18:1
11,21:3
11,22:3
11,25:1
11,26:1
11,27:2
12,3:2
12,4:2
12,6:1
12,8:1
12,9:2
12,11:1
12,13:1
12,15:1
12,17:1
12,20:2
12,25:2
12,27:1
13,2:1
13,6:2
13,7:3
13,8:2
13,9:3
13,10:1
13,12:1
13,14:1
13,15:2
13,16:1
13,18:1
13,21:3
13,22:3
13,25:1
13,26:1
13,27:2
14,3:2
14,4:2
14,6:1
14,8:1
14,11:1
14,13:1
14,15:1
14,17:1
14,19:1
14,20:2
14,21:2
14,25:2
14,27:1
15,1:1
15,2:1
15,3:1
15,4:1
15,5:1
15,11:2
15,13:2
15,14:1
15,16:1
15,17:2
15,18:1
15,19:2
15,20:1
15,25:3
15,26:1
16,11:1
16,13:1
16,15:1
16,17:1
16,19:1
16,20:2
16,21:2
16,25:2
16,27:1
17,7:3
17,9:3
17,10:1
17,12:1
17,14:1
17,15:2
17,16:1
17,18:1
17,20:3
17,21:3
17,22:3
17,25:1
17,26:1
17,27:2
18,11:1
18,13:1
18,15:1
18,17:1
18,19:1
18,20:2
18,21:2
18,22:2
18,25:2
18,27:1
19,1:1
19,2:1
19,3:3
19,4:3
19,5:1
19,6:2
19,8:2
19,14:1
19,16:1
19,18:1
19,20:3
19,21:3
19,25:1
19,26:1
19,27:2
20,10:2
20,12:2
20,14:2
20,15:1
20,16:2
20,18:2
20,19:3
20,23:2
20,25:4
20,26:2
20,27:1
21,1:2
21,2:2
21,5:2
21,6:1
21,8:1
21,11:3
21,13:3
21,14:2
21,16:2
21,17:3
21,18:2
21,25:4
21,26:2
21,27:1
22,11:3
22,13:3
22,17:3
22,23:2
22,25:4
22,26:2
22,27:1
23,24:2
23,25:2
23,27:1
24,26:2
24,27:3
24,28:2
24,29:2
25,2:2
25,3:4
25,4:4
25,5:2
25,6:3
25,8:3
25,9:4
25,10:2
25,11:1
25,12:2
25,13:1
25,14:2
25,15:3
25,16:2
25,17:1
25,18:2
25,19:1
25,20:4
25,21:4
25,22:4
25,23:2
25,26:2
25,27:3
25,28:2
25,29:2
26,3:2
26,4:2
26,6:1
26,7:2
26,8:1
26,9:2
26,11:1
26,13:1
26,15:1
26,17:1
26,19:1
26,20:2
26,21:2
26,22:2
26,24:2
26,25:2
26,27:1
27,1:1
27,3:1
27,4:1
27,5:1
27,7:1
27,9:1
27,10:1
27,11:2
27,12:1
27,13:2
27,14:1
27,16:1
27,17:2
27,18:1
27,19:2
27,20:1
27,21:1
27,22:1
27,23:1
27,24:3
27,25:3
27,28:1
27,29:1
28,24:2
28,25:2
28,27:1

<setup times backward>
1,19:1
2,13:1
2,19:1
2,25:2
3,1:2
3,2:2
3,6:1
3,10:2
3,12:2
3,14:2
3,15:1
3,19:3
3,25:4
3,26:2
3,27:1
4,1:2
4,2:2
4,6:1
4,10:2
4,12:2
4,14:2
4,15:1
4,19:3
4,25:4
4,26:2
4,27:1
5,19:1
5,25:2
6,1:1
6,2:1
6,5:1
6,10:1
6,12:1
6,13:2
6,14:1
6,19:2
6,25:3
6,26:1
7,1:2
7,2:2
7,5:2
7,6:1
7,8:1
7,11:3
7,13:3
7,17:3
7,26:2
7,27:1
8,1:1
8,2:1
8,5:1
8,10:1
8,12:1
8,13:2
8,14:1
8,19:2
8,25:3
8,26:1
9,1:2
9,2:2
9,5:2
9,6:1
9,8:1
9,11:3
9,12:2
9,13:3
9,17:3
9,25:4
9,26:2
9,27:1
10,11:1
10,13:1
10,17:1
10,25:2
11,25:1
12,11:1
12,13:1
12,17:1
12,25:2
13,25:1
14,11:1
14,13:1
14,17:1
14,19:1
14,25:2
15,1:1
15,2:1
15,5:1
15,10:1
15,11:2
15,12:1
15,13:2
15,14:1
15,16:1
15,17:2
15,18:1
15,25:3
15,26:1
16,11:1
16,13:1
16,17:1
16,19:1
16,25:2
17,25:1
18,11:1
18,13:1
18,17:1
18,19:1
18,25:2
19,25:1
20,1:2
20,2:2
20,5:2
20,6:1
20,8:1
20,10:2
20,11:3
20,12:2
20,13:3
20,14:2
20,15:1
20,16:2
20,17:3
20,18:2
20,19:3
20,25:4
20,26:2
20,27:1
21,1:2
21,2:2
21,5:2
21,6:1
21,8:1
21,10:2
21,11:3
21,12:2
21,13:3
21,14:2
21,15:1
21,16:2
21,17:3
21,18:2
21,19:3
21,25:4
21,26:2
21,27:1
22,1:2
22,2:2
22,5:2
22,6:1
22,8:1
22,10:2
22,11:3
22,12:2
22,13:3
22,14:2
22,15:1
22,16:2
22,17:3
22,18:2
22,19:3
22,25:4
22,26:2
22,27:1
23,11:1
23,13:1
23,17:1
23,19:1
23,25:2
26,11:1
26,13:1
26,17:1
26,19:1
26,24:2
26,25:2
27,1:1
27,2:1
27,5:1
27,10:1
27,11:2
27,12:1
27,13:2
27,14:1
27,16:1
27,17:2
27,18:1
27,19:2
27,23:1
27,24:3
27,25:3
27,26:1
27,28:1
28,11:1
28,13:1
28,17:1
28,19:1
28,24:2
28,25:2
29,11:1
29,13:1
29,17:1
29,19:1
29,24:2
29,25:2

<end>

<optimal SALBP-1 value>
12


<rand seed>
467321153

<Lower Bounds>
Lm1=11
Lms1=11
Lm2=8
Lm3=9
Lm4=11
Best=11

<Optimal Stations (Iterations: 10)>
14
